20 7
13 26 64 22 21 6 79 64 25 96 10 48 92 13 19 46 38 93 97 61 

19 47 85 64 63 59 80 18 66 56 48 86 88 11 12 52 39 9 99 41 
15 91 27 32 92 32 59 25 41 95 95 26 13 57 35 27 37 43 89 16 
78 89 77 24 93 99 50 52 42 63 23 31 98 8 7 86 42 31 76 56 
67 23 47 18 85 62 8 60 99 67 95 64 31 41 47 18 45 91 83 60 
30 97 88 30 7 61 33 26 58 46 29 70 13 32 78 72 36 13 97 81 
22 62 85 47 97 96 25 8 82 25 73 31 91 75 55 82 29 30 76 91 
87 22 94 85 91 65 74 59 29 73 39 67 87 62 89 49 54 75 91 53 

590 723 1004 568 987 645 705 